c Generated map
c Size: 30 * 30, weights in range: 1 to 10, walls: True, with ratio 0.1
c dim 2 of 3
c
p sp 900 1406
c graph contains 900 nodes and 1406 arcs
c
a 1 31 4
a 31 1 4
a 3 33 8
a 33 3 8
a 3 4 2
a 4 3 2
a 4 34 9
a 34 4 9
a 4 5 6
a 5 4 6
a 5 35 1
a 35 5 1
a 5 6 4
a 6 5 4
a 6 7 2
a 7 6 2
a 9 39 6
a 39 9 6
a 11 41 7
a 41 11 7
a 13 43 10
a 43 13 10
a 13 14 6
a 14 13 6
a 14 44 9
a 44 14 9
a 14 15 4
a 15 14 4
a 15 45 8
a 45 15 8
a 15 16 7
a 16 15 7
a 16 46 2
a 46 16 2
a 16 17 7
a 17 16 7
a 17 47 1
a 47 17 1
a 17 18 7
a 18 17 7
a 18 48 7
a 48 18 7
a 18 19 7
a 19 18 7
a 19 49 9
a 49 19 9
a 19 20 8
a 20 19 8
a 20 50 8
a 50 20 8
a 20 21 6
a 21 20 6
a 21 51 8
a 51 21 8
a 21 22 10
a 22 21 10
a 22 52 2
a 52 22 2
a 22 23 3
a 23 22 3
a 23 53 10
a 53 23 10
a 23 24 3
a 24 23 3
a 24 54 3
a 54 24 3
a 24 25 2
a 25 24 2
a 25 55 8
a 55 25 8
a 25 26 2
a 26 25 2
a 26 56 8
a 56 26 8
a 26 27 3
a 27 26 3
a 27 57 7
a 57 27 7
a 29 59 6
a 59 29 6
a 29 30 10
a 30 29 10
a 30 60 2
a 60 30 2
a 31 61 8
a 61 31 8
a 31 32 4
a 32 31 4
a 32 62 6
a 62 32 6
a 32 33 2
a 33 32 2
a 33 63 7
a 63 33 7
a 33 34 6
a 34 33 6
a 34 64 9
a 64 34 9
a 34 35 10
a 35 34 10
a 35 65 10
a 65 35 10
a 38 68 6
a 68 38 6
a 38 39 7
a 39 38 7
a 39 69 1
a 69 39 1
a 39 40 2
a 40 39 2
a 40 70 1
a 70 40 1
a 40 41 5
a 41 40 5
a 41 71 8
a 71 41 8
a 41 42 2
a 42 41 2
a 42 72 5
a 72 42 5
a 42 43 8
a 43 42 8
a 43 73 9
a 73 43 9
a 43 44 1
a 44 43 1
a 44 74 10
a 74 44 10
a 44 45 7
a 45 44 7
a 45 75 3
a 75 45 3
a 45 46 2
a 46 45 2
a 46 76 4
a 76 46 4
a 46 47 9
a 47 46 9
a 47 77 4
a 77 47 4
a 47 48 10
a 48 47 10
a 48 78 4
a 78 48 4
a 48 49 8
a 49 48 8
a 49 79 8
a 79 49 8
a 49 50 2
a 50 49 2
a 50 80 4
a 80 50 4
a 50 51 2
a 51 50 2
a 51 81 1
a 81 51 1
a 51 52 2
a 52 51 2
a 52 82 1
a 82 52 1
a 52 53 1
a 53 52 1
a 53 83 1
a 83 53 1
a 53 54 8
a 54 53 8
a 54 84 6
a 84 54 6
a 54 55 1
a 55 54 1
a 55 85 4
a 85 55 4
a 55 56 8
a 56 55 8
a 56 86 4
a 86 56 4
a 56 57 1
a 57 56 1
a 57 87 1
a 87 57 1
a 57 58 6
a 58 57 6
a 58 88 2
a 88 58 2
a 58 59 2
a 59 58 2
a 59 60 10
a 60 59 10
a 60 90 1
a 90 60 1
a 61 91 6
a 91 61 6
a 61 62 5
a 62 61 5
a 62 92 5
a 92 62 5
a 62 63 5
a 63 62 5
a 63 93 9
a 93 63 9
a 63 64 9
a 64 63 9
a 64 94 7
a 94 64 7
a 64 65 10
a 65 64 10
a 65 95 6
a 95 65 6
a 65 66 1
a 66 65 1
a 66 96 1
a 96 66 1
a 66 67 2
a 67 66 2
a 67 97 10
a 97 67 10
a 67 68 10
a 68 67 10
a 68 98 9
a 98 68 9
a 68 69 3
a 69 68 3
a 69 99 3
a 99 69 3
a 69 70 4
a 70 69 4
a 70 100 7
a 100 70 7
a 70 71 1
a 71 70 1
a 71 101 6
a 101 71 6
a 71 72 6
a 72 71 6
a 72 102 6
a 102 72 6
a 72 73 10
a 73 72 10
a 73 103 2
a 103 73 2
a 73 74 7
a 74 73 7
a 74 104 9
a 104 74 9
a 74 75 2
a 75 74 2
a 75 105 6
a 105 75 6
a 75 76 5
a 76 75 5
a 76 106 7
a 106 76 7
a 76 77 6
a 77 76 6
a 77 107 7
a 107 77 7
a 77 78 8
a 78 77 8
a 78 108 6
a 108 78 6
a 78 79 7
a 79 78 7
a 79 109 6
a 109 79 6
a 79 80 5
a 80 79 5
a 80 110 4
a 110 80 4
a 80 81 2
a 81 80 2
a 81 111 9
a 111 81 9
a 81 82 3
a 82 81 3
a 82 112 6
a 112 82 6
a 82 83 2
a 83 82 2
a 83 113 3
a 113 83 3
a 83 84 2
a 84 83 2
a 84 114 5
a 114 84 5
a 84 85 2
a 85 84 2
a 85 115 10
a 115 85 10
a 85 86 10
a 86 85 10
a 86 116 7
a 116 86 7
a 86 87 10
a 87 86 10
a 87 117 3
a 117 87 3
a 87 88 4
a 88 87 4
a 90 120 9
a 120 90 9
a 91 121 1
a 121 91 1
a 91 92 9
a 92 91 9
a 92 122 10
a 122 92 10
a 92 93 6
a 93 92 6
a 93 94 9
a 94 93 9
a 94 124 3
a 124 94 3
a 94 95 1
a 95 94 1
a 95 125 1
a 125 95 1
a 95 96 8
a 96 95 8
a 96 126 9
a 126 96 9
a 96 97 8
a 97 96 8
a 97 98 9
a 98 97 9
a 98 128 6
a 128 98 6
a 98 99 10
a 99 98 10
a 99 129 6
a 129 99 6
a 99 100 8
a 100 99 8
a 100 130 7
a 130 100 7
a 100 101 8
a 101 100 8
a 101 131 1
a 131 101 1
a 101 102 4
a 102 101 4
a 102 132 9
a 132 102 9
a 102 103 10
a 103 102 10
a 103 133 4
a 133 103 4
a 103 104 7
a 104 103 7
a 104 134 7
a 134 104 7
a 104 105 10
a 105 104 10
a 105 135 4
a 135 105 4
a 105 106 4
a 106 105 4
a 106 136 1
a 136 106 1
a 106 107 3
a 107 106 3
a 107 137 6
a 137 107 6
a 107 108 7
a 108 107 7
a 108 109 1
a 109 108 1
a 109 139 5
a 139 109 5
a 109 110 7
a 110 109 7
a 110 140 8
a 140 110 8
a 110 111 10
a 111 110 10
a 111 141 7
a 141 111 7
a 111 112 8
a 112 111 8
a 112 113 8
a 113 112 8
a 113 143 4
a 143 113 4
a 113 114 8
a 114 113 8
a 114 144 7
a 144 114 7
a 114 115 10
a 115 114 10
a 115 145 4
a 145 115 4
a 115 116 4
a 116 115 4
a 116 146 6
a 146 116 6
a 116 117 8
a 117 116 8
a 117 147 2
a 147 117 2
a 119 149 5
a 149 119 5
a 119 120 1
a 120 119 1
a 121 151 10
a 151 121 10
a 121 122 1
a 122 121 1
a 122 152 10
a 152 122 10
a 124 154 4
a 154 124 4
a 124 125 10
a 125 124 10
a 125 155 10
a 155 125 10
a 125 126 2
a 126 125 2
a 126 156 3
a 156 126 3
a 128 158 6
a 158 128 6
a 128 129 2
a 129 128 2
a 129 159 4
a 159 129 4
a 129 130 5
a 130 129 5
a 130 160 5
a 160 130 5
a 130 131 6
a 131 130 6
a 131 161 5
a 161 131 5
a 131 132 8
a 132 131 8
a 132 133 4
a 133 132 4
a 133 163 5
a 163 133 5
a 133 134 1
a 134 133 1
a 134 164 2
a 164 134 2
a 134 135 3
a 135 134 3
a 135 165 4
a 165 135 4
a 135 136 4
a 136 135 4
a 136 166 7
a 166 136 7
a 136 137 6
a 137 136 6
a 137 167 5
a 167 137 5
a 139 169 3
a 169 139 3
a 139 140 3
a 140 139 3
a 140 141 7
a 141 140 7
a 141 171 4
a 171 141 4
a 143 173 10
a 173 143 10
a 143 144 4
a 144 143 4
a 144 174 2
a 174 144 2
a 144 145 7
a 145 144 7
a 145 175 10
a 175 145 10
a 145 146 1
a 146 145 1
a 146 176 4
a 176 146 4
a 146 147 3
a 147 146 3
a 147 148 6
a 148 147 6
a 148 178 9
a 178 148 9
a 148 149 4
a 149 148 4
a 149 179 8
a 179 149 8
a 151 181 5
a 181 151 5
a 151 152 7
a 152 151 7
a 152 182 5
a 182 152 5
a 152 153 1
a 153 152 1
a 153 183 5
a 183 153 5
a 153 154 7
a 154 153 7
a 154 184 6
a 184 154 6
a 154 155 6
a 155 154 6
a 155 185 2
a 185 155 2
a 155 156 2
a 156 155 2
a 156 186 10
a 186 156 10
a 156 157 9
a 157 156 9
a 157 187 7
a 187 157 7
a 157 158 1
a 158 157 1
a 158 188 8
a 188 158 8
a 158 159 9
a 159 158 9
a 159 160 9
a 160 159 9
a 160 190 1
a 190 160 1
a 160 161 3
a 161 160 3
a 161 191 7
a 191 161 7
a 163 193 2
a 193 163 2
a 163 164 8
a 164 163 8
a 164 194 7
a 194 164 7
a 164 165 4
a 165 164 4
a 165 195 1
a 195 165 1
a 165 166 7
a 166 165 7
a 166 196 3
a 196 166 3
a 166 167 2
a 167 166 2
a 167 197 3
a 197 167 3
a 167 168 10
a 168 167 10
a 168 198 8
a 198 168 8
a 168 169 7
a 169 168 7
a 169 199 3
a 199 169 3
a 171 201 7
a 201 171 7
a 171 172 9
a 172 171 9
a 172 202 9
a 202 172 9
a 172 173 10
a 173 172 10
a 173 203 3
a 203 173 3
a 173 174 6
a 174 173 6
a 174 204 8
a 204 174 8
a 174 175 6
a 175 174 6
a 175 205 6
a 205 175 6
a 175 176 7
a 176 175 7
a 178 208 1
a 208 178 1
a 178 179 7
a 179 178 7
a 179 180 5
a 180 179 5
a 180 210 2
a 210 180 2
a 181 182 2
a 182 181 2
a 182 212 2
a 212 182 2
a 182 183 4
a 183 182 4
a 183 213 8
a 213 183 8
a 183 184 1
a 184 183 1
a 184 214 8
a 214 184 8
a 184 185 2
a 185 184 2
a 185 215 6
a 215 185 6
a 185 186 2
a 186 185 2
a 186 216 7
a 216 186 7
a 186 187 8
a 187 186 8
a 187 217 2
a 217 187 2
a 187 188 9
a 188 187 9
a 188 218 8
a 218 188 8
a 190 220 6
a 220 190 6
a 190 191 3
a 191 190 3
a 191 221 1
a 221 191 1
a 191 192 2
a 192 191 2
a 192 222 1
a 222 192 1
a 192 193 1
a 193 192 1
a 193 194 2
a 194 193 2
a 194 224 3
a 224 194 3
a 194 195 8
a 195 194 8
a 195 225 4
a 225 195 4
a 195 196 7
a 196 195 7
a 196 226 7
a 226 196 7
a 196 197 8
a 197 196 8
a 197 227 2
a 227 197 2
a 197 198 4
a 198 197 4
a 198 228 6
a 228 198 6
a 198 199 7
a 199 198 7
a 199 229 2
a 229 199 2
a 199 200 8
a 200 199 8
a 200 230 5
a 230 200 5
a 200 201 3
a 201 200 3
a 201 231 10
a 231 201 10
a 201 202 10
a 202 201 10
a 202 232 8
a 232 202 8
a 202 203 7
a 203 202 7
a 203 233 8
a 233 203 8
a 203 204 9
a 204 203 9
a 204 234 7
a 234 204 7
a 204 205 1
a 205 204 1
a 205 235 1
a 235 205 1
a 207 237 2
a 237 207 2
a 207 208 1
a 208 207 1
a 210 240 10
a 240 210 10
a 212 242 3
a 242 212 3
a 212 213 3
a 213 212 3
a 213 243 6
a 243 213 6
a 213 214 6
a 214 213 6
a 214 244 6
a 244 214 6
a 214 215 4
a 215 214 4
a 215 245 7
a 245 215 7
a 215 216 1
a 216 215 1
a 216 217 7
a 217 216 7
a 217 247 3
a 247 217 3
a 217 218 8
a 218 217 8
a 218 248 1
a 248 218 1
a 218 219 8
a 219 218 8
a 219 249 7
a 249 219 7
a 219 220 7
a 220 219 7
a 220 250 9
a 250 220 9
a 220 221 5
a 221 220 5
a 221 251 8
a 251 221 8
a 221 222 10
a 222 221 10
a 222 252 5
a 252 222 5
a 224 254 5
a 254 224 5
a 224 225 7
a 225 224 7
a 225 226 7
a 226 225 7
a 226 256 10
a 256 226 10
a 226 227 9
a 227 226 9
a 227 257 6
a 257 227 6
a 227 228 6
a 228 227 6
a 228 258 3
a 258 228 3
a 228 229 10
a 229 228 10
a 229 259 5
a 259 229 5
a 229 230 4
a 230 229 4
a 230 260 2
a 260 230 2
a 230 231 9
a 231 230 9
a 231 261 10
a 261 231 10
a 231 232 5
a 232 231 5
a 232 262 4
a 262 232 4
a 232 233 8
a 233 232 8
a 233 263 2
a 263 233 2
a 233 234 6
a 234 233 6
a 234 235 7
a 235 234 7
a 235 265 1
a 265 235 1
a 235 236 5
a 236 235 5
a 236 266 6
a 266 236 6
a 236 237 9
a 237 236 9
a 237 267 10
a 267 237 10
a 239 269 7
a 269 239 7
a 239 240 6
a 240 239 6
a 241 271 3
a 271 241 3
a 241 242 6
a 242 241 6
a 242 272 4
a 272 242 4
a 242 243 7
a 243 242 7
a 243 273 9
a 273 243 9
a 243 244 7
a 244 243 7
a 244 274 1
a 274 244 1
a 244 245 3
a 245 244 3
a 247 277 9
a 277 247 9
a 247 248 2
a 248 247 2
a 248 278 10
a 278 248 10
a 248 249 10
a 249 248 10
a 249 279 6
a 279 249 6
a 249 250 3
a 250 249 3
a 250 280 8
a 280 250 8
a 250 251 5
a 251 250 5
a 251 281 9
a 281 251 9
a 251 252 9
a 252 251 9
a 252 282 4
a 282 252 4
a 254 284 5
a 284 254 5
a 256 286 10
a 286 256 10
a 256 257 8
a 257 256 8
a 257 287 6
a 287 257 6
a 257 258 9
a 258 257 9
a 258 288 8
a 288 258 8
a 258 259 4
a 259 258 4
a 259 260 5
a 260 259 5
a 260 290 5
a 290 260 5
a 260 261 2
a 261 260 2
a 261 291 2
a 291 261 2
a 261 262 9
a 262 261 9
a 262 292 7
a 292 262 7
a 262 263 4
a 263 262 4
a 263 293 9
a 293 263 9
a 265 295 7
a 295 265 7
a 265 266 6
a 266 265 6
a 266 296 4
a 296 266 4
a 266 267 2
a 267 266 2
a 267 268 1
a 268 267 1
a 268 298 5
a 298 268 5
a 268 269 2
a 269 268 2
a 269 299 2
a 299 269 2
a 271 301 10
a 301 271 10
a 271 272 4
a 272 271 4
a 272 302 8
a 302 272 8
a 272 273 6
a 273 272 6
a 273 303 6
a 303 273 6
a 273 274 2
a 274 273 2
a 274 304 5
a 304 274 5
a 276 306 5
a 306 276 5
a 276 277 8
a 277 276 8
a 277 307 8
a 307 277 8
a 277 278 4
a 278 277 4
a 278 308 8
a 308 278 8
a 278 279 6
a 279 278 6
a 279 309 4
a 309 279 4
a 279 280 5
a 280 279 5
a 280 310 2
a 310 280 2
a 280 281 1
a 281 280 1
a 281 311 3
a 311 281 3
a 281 282 5
a 282 281 5
a 282 312 3
a 312 282 3
a 282 283 7
a 283 282 7
a 283 313 8
a 313 283 8
a 283 284 5
a 284 283 5
a 284 314 10
a 314 284 10
a 284 285 10
a 285 284 10
a 285 315 3
a 315 285 3
a 285 286 2
a 286 285 2
a 286 316 4
a 316 286 4
a 286 287 6
a 287 286 6
a 287 317 7
a 317 287 7
a 287 288 9
a 288 287 9
a 288 318 1
a 318 288 1
a 290 291 6
a 291 290 6
a 291 321 3
a 321 291 3
a 291 292 6
a 292 291 6
a 292 322 10
a 322 292 10
a 292 293 2
a 293 292 2
a 293 323 5
a 323 293 5
a 293 294 6
a 294 293 6
a 294 324 9
a 324 294 9
a 294 295 2
a 295 294 2
a 295 325 10
a 325 295 10
a 295 296 3
a 296 295 3
a 296 326 8
a 326 296 8
a 298 328 9
a 328 298 9
a 298 299 1
a 299 298 1
a 299 329 2
a 329 299 2
a 299 300 5
a 300 299 5
a 300 330 7
a 330 300 7
a 301 331 1
a 331 301 1
a 301 302 9
a 302 301 9
a 302 332 8
a 332 302 8
a 302 303 8
a 303 302 8
a 303 333 8
a 333 303 8
a 303 304 2
a 304 303 2
a 304 334 1
a 334 304 1
a 304 305 10
a 305 304 10
a 305 335 3
a 335 305 3
a 305 306 6
a 306 305 6
a 306 336 3
a 336 306 3
a 306 307 7
a 307 306 7
a 307 337 5
a 337 307 5
a 307 308 4
a 308 307 4
a 308 338 3
a 338 308 3
a 308 309 8
a 309 308 8
a 309 339 9
a 339 309 9
a 309 310 1
a 310 309 1
a 310 340 8
a 340 310 8
a 310 311 8
a 311 310 8
a 311 341 1
a 341 311 1
a 311 312 4
a 312 311 4
a 312 342 2
a 342 312 2
a 312 313 8
a 313 312 8
a 313 314 6
a 314 313 6
a 314 344 7
a 344 314 7
a 314 315 8
a 315 314 8
a 315 345 3
a 345 315 3
a 315 316 7
a 316 315 7
a 316 346 3
a 346 316 3
a 316 317 5
a 317 316 5
a 317 318 3
a 318 317 3
a 318 348 10
a 348 318 10
a 318 319 4
a 319 318 4
a 319 349 6
a 349 319 6
a 321 322 4
a 322 321 4
a 322 323 6
a 323 322 6
a 323 324 2
a 324 323 2
a 324 354 7
a 354 324 7
a 324 325 3
a 325 324 3
a 325 355 8
a 355 325 8
a 325 326 4
a 326 325 4
a 326 356 2
a 356 326 2
a 326 327 5
a 327 326 5
a 327 357 6
a 357 327 6
a 327 328 7
a 328 327 7
a 328 358 8
a 358 328 8
a 328 329 2
a 329 328 2
a 329 359 10
a 359 329 10
a 329 330 7
a 330 329 7
a 330 360 4
a 360 330 4
a 331 361 10
a 361 331 10
a 331 332 2
a 332 331 2
a 332 362 4
a 362 332 4
a 332 333 2
a 333 332 2
a 333 363 5
a 363 333 5
a 333 334 1
a 334 333 1
a 334 364 4
a 364 334 4
a 334 335 8
a 335 334 8
a 335 365 1
a 365 335 1
a 335 336 5
a 336 335 5
a 336 366 5
a 366 336 5
a 336 337 10
a 337 336 10
a 337 367 8
a 367 337 8
a 337 338 4
a 338 337 4
a 338 368 3
a 368 338 3
a 338 339 7
a 339 338 7
a 339 369 3
a 369 339 3
a 339 340 7
a 340 339 7
a 340 370 9
a 370 340 9
a 340 341 4
a 341 340 4
a 341 342 10
a 342 341 10
a 342 372 7
a 372 342 7
a 344 345 10
a 345 344 10
a 345 375 7
a 375 345 7
a 345 346 3
a 346 345 3
a 346 376 8
a 376 346 8
a 348 378 8
a 378 348 8
a 348 349 8
a 349 348 8
a 349 379 5
a 379 349 5
a 349 350 1
a 350 349 1
a 354 384 4
a 384 354 4
a 354 355 4
a 355 354 4
a 355 385 1
a 385 355 1
a 355 356 6
a 356 355 6
a 356 386 9
a 386 356 9
a 356 357 5
a 357 356 5
a 357 387 2
a 387 357 2
a 357 358 4
a 358 357 4
a 358 388 3
a 388 358 3
a 358 359 2
a 359 358 2
a 359 389 10
a 389 359 10
a 359 360 10
a 360 359 10
a 360 390 4
a 390 360 4
a 361 391 9
a 391 361 9
a 361 362 6
a 362 361 6
a 362 392 9
a 392 362 9
a 362 363 1
a 363 362 1
a 363 364 2
a 364 363 2
a 364 394 10
a 394 364 10
a 364 365 10
a 365 364 10
a 365 395 4
a 395 365 4
a 365 366 8
a 366 365 8
a 366 396 4
a 396 366 4
a 366 367 2
a 367 366 2
a 367 397 7
a 397 367 7
a 367 368 10
a 368 367 10
a 368 398 6
a 398 368 6
a 368 369 2
a 369 368 2
a 369 399 8
a 399 369 8
a 369 370 6
a 370 369 6
a 370 400 8
a 400 370 8
a 375 376 6
a 376 375 6
a 376 406 6
a 406 376 6
a 376 377 3
a 377 376 3
a 377 378 8
a 378 377 8
a 378 408 2
a 408 378 2
a 378 379 3
a 379 378 3
a 379 409 7
a 409 379 7
a 381 411 6
a 411 381 6
a 381 382 10
a 382 381 10
a 382 412 6
a 412 382 6
a 382 383 8
a 383 382 8
a 383 413 9
a 413 383 9
a 383 384 8
a 384 383 8
a 384 385 4
a 385 384 4
a 385 415 8
a 415 385 8
a 385 386 8
a 386 385 8
a 386 416 2
a 416 386 2
a 386 387 7
a 387 386 7
a 387 417 2
a 417 387 2
a 387 388 3
a 388 387 3
a 388 418 7
a 418 388 7
a 388 389 7
a 389 388 7
a 389 419 9
a 419 389 9
a 389 390 9
a 390 389 9
a 390 420 7
a 420 390 7
a 391 421 8
a 421 391 8
a 391 392 4
a 392 391 4
a 392 422 3
a 422 392 3
a 394 424 6
a 424 394 6
a 394 395 4
a 395 394 4
a 395 396 4
a 396 395 4
a 396 426 6
a 426 396 6
a 396 397 4
a 397 396 4
a 397 427 4
a 427 397 4
a 397 398 5
a 398 397 5
a 398 428 1
a 428 398 1
a 398 399 8
a 399 398 8
a 399 429 10
a 429 399 10
a 399 400 7
a 400 399 7
a 400 430 7
a 430 400 7
a 400 401 9
a 401 400 9
a 401 431 10
a 431 401 10
a 403 404 2
a 404 403 2
a 404 434 7
a 434 404 7
a 408 438 10
a 438 408 10
a 408 409 7
a 409 408 7
a 409 439 7
a 439 409 7
a 409 410 2
a 410 409 2
a 410 440 9
a 440 410 9
a 410 411 6
a 411 410 6
a 411 441 4
a 441 411 4
a 411 412 6
a 412 411 6
a 412 442 6
a 442 412 6
a 412 413 1
a 413 412 1
a 413 443 10
a 443 413 10
a 415 445 5
a 445 415 5
a 415 416 7
a 416 415 7
a 416 446 7
a 446 416 7
a 416 417 4
a 417 416 4
a 417 447 9
a 447 417 9
a 417 418 4
a 418 417 4
a 418 448 1
a 448 418 1
a 418 419 10
a 419 418 10
a 419 449 7
a 449 419 7
a 419 420 1
a 420 419 1
a 420 450 3
a 450 420 3
a 421 451 9
a 451 421 9
a 421 422 10
a 422 421 10
a 422 423 4
a 423 422 4
a 423 453 8
a 453 423 8
a 423 424 2
a 424 423 2
a 424 454 8
a 454 424 8
a 426 456 1
a 456 426 1
a 426 427 3
a 427 426 3
a 427 457 3
a 457 427 3
a 427 428 10
a 428 427 10
a 428 458 10
a 458 428 10
a 428 429 10
a 429 428 10
a 429 459 10
a 459 429 10
a 429 430 4
a 430 429 4
a 430 460 2
a 460 430 2
a 430 431 6
a 431 430 6
a 431 461 8
a 461 431 8
a 431 432 7
a 432 431 7
a 432 462 8
a 462 432 8
a 434 464 1
a 464 434 1
a 434 435 8
a 435 434 8
a 435 465 6
a 465 435 6
a 438 439 6
a 439 438 6
a 439 469 10
a 469 439 10
a 439 440 6
a 440 439 6
a 440 470 7
a 470 440 7
a 440 441 6
a 441 440 6
a 441 471 9
a 471 441 9
a 441 442 2
a 442 441 2
a 442 472 6
a 472 442 6
a 442 443 8
a 443 442 8
a 443 444 7
a 444 443 7
a 444 474 8
a 474 444 8
a 444 445 2
a 445 444 2
a 445 475 8
a 475 445 8
a 445 446 4
a 446 445 4
a 446 447 5
a 447 446 5
a 447 477 6
a 477 447 6
a 447 448 7
a 448 447 7
a 448 478 2
a 478 448 2
a 448 449 9
a 449 448 9
a 449 479 3
a 479 449 3
a 449 450 10
a 450 449 10
a 451 481 1
a 481 451 1
a 453 483 7
a 483 453 7
a 453 454 6
a 454 453 6
a 454 455 4
a 455 454 4
a 455 485 10
a 485 455 10
a 455 456 7
a 456 455 7
a 456 486 6
a 486 456 6
a 456 457 1
a 457 456 1
a 457 487 9
a 487 457 9
a 457 458 7
a 458 457 7
a 458 488 8
a 488 458 8
a 458 459 9
a 459 458 9
a 459 489 4
a 489 459 4
a 459 460 6
a 460 459 6
a 460 490 10
a 490 460 10
a 460 461 6
a 461 460 6
a 461 491 5
a 491 461 5
a 461 462 1
a 462 461 1
a 462 492 5
a 492 462 5
a 462 463 5
a 463 462 5
a 463 493 3
a 493 463 3
a 463 464 8
a 464 463 8
a 464 494 3
a 494 464 3
a 464 465 9
a 465 464 9
a 465 495 9
a 495 465 9
a 465 466 4
a 466 465 4
a 466 496 5
a 496 466 5
a 466 467 8
a 467 466 8
a 467 497 2
a 497 467 2
a 469 499 9
a 499 469 9
a 469 470 1
a 470 469 1
a 470 500 2
a 500 470 2
a 470 471 2
a 471 470 2
a 471 501 8
a 501 471 8
a 471 472 1
a 472 471 1
a 472 502 10
a 502 472 10
a 474 504 5
a 504 474 5
a 474 475 7
a 475 474 7
a 475 505 2
a 505 475 2
a 477 507 2
a 507 477 2
a 477 478 2
a 478 477 2
a 478 508 4
a 508 478 4
a 478 479 10
a 479 478 10
a 479 509 7
a 509 479 7
a 481 511 8
a 511 481 8
a 481 482 8
a 482 481 8
a 482 512 8
a 512 482 8
a 482 483 7
a 483 482 7
a 483 513 9
a 513 483 9
a 485 515 2
a 515 485 2
a 485 486 3
a 486 485 3
a 486 516 8
a 516 486 8
a 486 487 10
a 487 486 10
a 487 488 4
a 488 487 4
a 488 518 1
a 518 488 1
a 488 489 6
a 489 488 6
a 489 519 4
a 519 489 4
a 489 490 7
a 490 489 7
a 490 520 4
a 520 490 4
a 490 491 6
a 491 490 6
a 491 521 10
a 521 491 10
a 491 492 7
a 492 491 7
a 492 493 10
a 493 492 10
a 493 523 10
a 523 493 10
a 493 494 9
a 494 493 9
a 494 524 2
a 524 494 2
a 494 495 9
a 495 494 9
a 495 525 1
a 525 495 1
a 495 496 2
a 496 495 2
a 496 526 5
a 526 496 5
a 496 497 2
a 497 496 2
a 497 527 2
a 527 497 2
a 497 498 1
a 498 497 1
a 498 528 2
a 528 498 2
a 498 499 10
a 499 498 10
a 499 500 1
a 500 499 1
a 500 530 9
a 530 500 9
a 500 501 7
a 501 500 7
a 501 531 8
a 531 501 8
a 501 502 5
a 502 501 5
a 502 532 5
a 532 502 5
a 502 503 5
a 503 502 5
a 503 504 1
a 504 503 1
a 504 534 6
a 534 504 6
a 504 505 4
a 505 504 4
a 505 535 7
a 535 505 7
a 505 506 5
a 506 505 5
a 506 536 1
a 536 506 1
a 506 507 10
a 507 506 10
a 507 537 3
a 537 507 3
a 507 508 1
a 508 507 1
a 508 538 2
a 538 508 2
a 508 509 8
a 509 508 8
a 509 539 3
a 539 509 3
a 509 510 10
a 510 509 10
a 510 540 6
a 540 510 6
a 511 541 6
a 541 511 6
a 511 512 8
a 512 511 8
a 512 542 5
a 542 512 5
a 512 513 10
a 513 512 10
a 513 543 2
a 543 513 2
a 513 514 9
a 514 513 9
a 514 515 9
a 515 514 9
a 515 545 7
a 545 515 7
a 515 516 2
a 516 515 2
a 516 546 7
a 546 516 7
a 518 548 4
a 548 518 4
a 518 519 2
a 519 518 2
a 519 549 9
a 549 519 9
a 519 520 2
a 520 519 2
a 520 550 8
a 550 520 8
a 520 521 3
a 521 520 3
a 521 551 5
a 551 521 5
a 523 553 5
a 553 523 5
a 523 524 9
a 524 523 9
a 524 554 8
a 554 524 8
a 524 525 4
a 525 524 4
a 525 555 8
a 555 525 8
a 525 526 9
a 526 525 9
a 526 556 3
a 556 526 3
a 526 527 3
a 527 526 3
a 527 557 8
a 557 527 8
a 527 528 6
a 528 527 6
a 528 558 7
a 558 528 7
a 530 560 5
a 560 530 5
a 530 531 1
a 531 530 1
a 531 561 8
a 561 531 8
a 531 532 10
a 532 531 10
a 532 562 7
a 562 532 7
a 534 564 6
a 564 534 6
a 534 535 4
a 535 534 4
a 535 565 2
a 565 535 2
a 535 536 5
a 536 535 5
a 536 566 6
a 566 536 6
a 536 537 1
a 537 536 1
a 537 567 8
a 567 537 8
a 537 538 3
a 538 537 3
a 538 568 4
a 568 538 4
a 538 539 8
a 539 538 8
a 539 569 10
a 569 539 10
a 539 540 6
a 540 539 6
a 540 570 7
a 570 540 7
a 541 571 2
a 571 541 2
a 541 542 9
a 542 541 9
a 542 572 6
a 572 542 6
a 542 543 4
a 543 542 4
a 543 573 3
a 573 543 3
a 545 575 8
a 575 545 8
a 545 546 8
a 546 545 8
a 546 576 8
a 576 546 8
a 546 547 1
a 547 546 1
a 547 577 1
a 577 547 1
a 547 548 8
a 548 547 8
a 548 578 3
a 578 548 3
a 548 549 2
a 549 548 2
a 549 579 3
a 579 549 3
a 549 550 2
a 550 549 2
a 550 580 9
a 580 550 9
a 550 551 1
a 551 550 1
a 551 552 10
a 552 551 10
a 552 553 3
a 553 552 3
a 553 554 8
a 554 553 8
a 554 584 10
a 584 554 10
a 554 555 9
a 555 554 9
a 555 585 7
a 585 555 7
a 555 556 5
a 556 555 5
a 556 586 5
a 586 556 5
a 556 557 4
a 557 556 4
a 557 587 5
a 587 557 5
a 557 558 3
a 558 557 3
a 558 588 9
a 588 558 9
a 558 559 2
a 559 558 2
a 559 589 3
a 589 559 3
a 559 560 10
a 560 559 10
a 560 590 2
a 590 560 2
a 560 561 6
a 561 560 6
a 561 591 1
a 591 561 1
a 561 562 2
a 562 561 2
a 562 592 1
a 592 562 1
a 562 563 3
a 563 562 3
a 563 564 6
a 564 563 6
a 564 594 7
a 594 564 7
a 564 565 3
a 565 564 3
a 565 595 6
a 595 565 6
a 565 566 9
a 566 565 9
a 566 596 5
a 596 566 5
a 566 567 8
a 567 566 8
a 567 597 9
a 597 567 9
a 567 568 2
a 568 567 2
a 568 598 1
a 598 568 1
a 568 569 5
a 569 568 5
a 569 599 3
a 599 569 3
a 569 570 1
a 570 569 1
a 570 600 1
a 600 570 1
a 571 601 4
a 601 571 4
a 571 572 4
a 572 571 4
a 572 602 9
a 602 572 9
a 572 573 4
a 573 572 4
a 573 603 2
a 603 573 2
a 573 574 6
a 574 573 6
a 574 604 4
a 604 574 4
a 574 575 7
a 575 574 7
a 575 605 10
a 605 575 10
a 575 576 7
a 576 575 7
a 576 606 6
a 606 576 6
a 576 577 6
a 577 576 6
a 577 607 2
a 607 577 2
a 577 578 5
a 578 577 5
a 578 608 7
a 608 578 7
a 578 579 2
a 579 578 2
a 579 609 10
a 609 579 10
a 579 580 5
a 580 579 5
a 580 610 9
a 610 580 9
a 584 585 4
a 585 584 4
a 585 615 2
a 615 585 2
a 585 586 6
a 586 585 6
a 586 616 6
a 616 586 6
a 586 587 8
a 587 586 8
a 587 617 1
a 617 587 1
a 587 588 9
a 588 587 9
a 588 618 2
a 618 588 2
a 588 589 8
a 589 588 8
a 589 619 10
a 619 589 10
a 589 590 2
a 590 589 2
a 590 620 9
a 620 590 9
a 590 591 10
a 591 590 10
a 591 621 10
a 621 591 10
a 591 592 7
a 592 591 7
a 592 622 4
a 622 592 4
a 594 624 9
a 624 594 9
a 594 595 2
a 595 594 2
a 595 596 3
a 596 595 3
a 596 626 7
a 626 596 7
a 596 597 9
a 597 596 9
a 597 627 1
a 627 597 1
a 597 598 4
a 598 597 4
a 598 599 1
a 599 598 1
a 599 629 8
a 629 599 8
a 599 600 7
a 600 599 7
a 600 630 8
a 630 600 8
a 601 631 6
a 631 601 6
a 601 602 10
a 602 601 10
a 602 632 4
a 632 602 4
a 602 603 1
a 603 602 1
a 603 633 8
a 633 603 8
a 603 604 4
a 604 603 4
a 604 634 7
a 634 604 7
a 604 605 7
a 605 604 7
a 605 635 4
a 635 605 4
a 605 606 7
a 606 605 7
a 606 636 7
a 636 606 7
a 606 607 9
a 607 606 9
a 607 637 2
a 637 607 2
a 607 608 7
a 608 607 7
a 608 638 5
a 638 608 5
a 608 609 7
a 609 608 7
a 609 610 8
a 610 609 8
a 610 640 4
a 640 610 4
a 612 613 3
a 613 612 3
a 613 643 8
a 643 613 8
a 615 645 3
a 645 615 3
a 615 616 8
a 616 615 8
a 616 646 10
a 646 616 10
a 616 617 7
a 617 616 7
a 617 647 8
a 647 617 8
a 617 618 9
a 618 617 9
a 618 648 8
a 648 618 8
a 618 619 10
a 619 618 10
a 619 649 10
a 649 619 10
a 619 620 6
a 620 619 6
a 620 650 7
a 650 620 7
a 620 621 9
a 621 620 9
a 621 651 7
a 651 621 7
a 621 622 7
a 622 621 7
a 622 652 6
a 652 622 6
a 622 623 4
a 623 622 4
a 623 653 4
a 653 623 4
a 623 624 6
a 624 623 6
a 624 654 9
a 654 624 9
a 626 656 9
a 656 626 9
a 626 627 1
a 627 626 1
a 627 657 7
a 657 627 7
a 629 659 6
a 659 629 6
a 629 630 3
a 630 629 3
a 630 660 6
a 660 630 6
a 631 661 6
a 661 631 6
a 631 632 3
a 632 631 3
a 632 662 7
a 662 632 7
a 632 633 10
a 633 632 10
a 633 663 7
a 663 633 7
a 633 634 4
a 634 633 4
a 634 635 1
a 635 634 1
a 635 665 1
a 665 635 1
a 635 636 8
a 636 635 8
a 636 666 1
a 666 636 1
a 636 637 3
a 637 636 3
a 637 667 7
a 667 637 7
a 637 638 1
a 638 637 1
a 638 668 2
a 668 638 2
a 640 670 1
a 670 640 1
a 640 641 7
a 641 640 7
a 641 671 5
a 671 641 5
a 643 673 9
a 673 643 9
a 643 644 5
a 644 643 5
a 644 674 6
a 674 644 6
a 644 645 1
a 645 644 1
a 645 675 3
a 675 645 3
a 645 646 6
a 646 645 6
a 646 676 10
a 676 646 10
a 646 647 1
a 647 646 1
a 647 677 8
a 677 647 8
a 647 648 5
a 648 647 5
a 648 678 7
a 678 648 7
a 648 649 6
a 649 648 6
a 649 679 9
a 679 649 9
a 649 650 9
a 650 649 9
a 650 680 8
a 680 650 8
a 650 651 10
a 651 650 10
a 651 681 2
a 681 651 2
a 651 652 7
a 652 651 7
a 652 682 8
a 682 652 8
a 652 653 1
a 653 652 1
a 653 683 5
a 683 653 5
a 653 654 3
a 654 653 3
a 654 684 10
a 684 654 10
a 654 655 10
a 655 654 10
a 655 685 1
a 685 655 1
a 655 656 5
a 656 655 5
a 656 686 4
a 686 656 4
a 656 657 8
a 657 656 8
a 657 687 4
a 687 657 4
a 657 658 5
a 658 657 5
a 658 688 6
a 688 658 6
a 658 659 10
a 659 658 10
a 659 689 8
a 689 659 8
a 659 660 7
a 660 659 7
a 660 690 3
a 690 660 3
a 661 691 1
a 691 661 1
a 661 662 7
a 662 661 7
a 662 663 2
a 663 662 2
a 663 693 8
a 693 663 8
a 665 695 1
a 695 665 1
a 665 666 7
a 666 665 7
a 666 696 9
a 696 666 9
a 666 667 8
a 667 666 8
a 667 697 10
a 697 667 10
a 667 668 10
a 668 667 10
a 668 698 6
a 698 668 6
a 668 669 9
a 669 668 9
a 669 670 2
a 670 669 2
a 670 700 1
a 700 670 1
a 670 671 1
a 671 670 1
a 671 701 9
a 701 671 9
a 671 672 10
a 672 671 10
a 672 702 3
a 702 672 3
a 672 673 4
a 673 672 4
a 673 703 8
a 703 673 8
a 673 674 8
a 674 673 8
a 674 704 6
a 704 674 6
a 674 675 1
a 675 674 1
a 675 705 1
a 705 675 1
a 675 676 8
a 676 675 8
a 676 706 2
a 706 676 2
a 676 677 2
a 677 676 2
a 677 707 8
a 707 677 8
a 677 678 9
a 678 677 9
a 678 708 6
a 708 678 6
a 678 679 3
a 679 678 3
a 679 709 7
a 709 679 7
a 679 680 4
a 680 679 4
a 680 710 10
a 710 680 10
a 680 681 4
a 681 680 4
a 681 711 2
a 711 681 2
a 681 682 3
a 682 681 3
a 682 712 2
a 712 682 2
a 682 683 8
a 683 682 8
a 683 713 3
a 713 683 3
a 683 684 8
a 684 683 8
a 684 714 2
a 714 684 2
a 684 685 10
a 685 684 10
a 685 715 3
a 715 685 3
a 685 686 2
a 686 685 2
a 686 716 2
a 716 686 2
a 686 687 4
a 687 686 4
a 687 717 5
a 717 687 5
a 687 688 5
a 688 687 5
a 688 718 5
a 718 688 5
a 688 689 10
a 689 688 10
a 689 719 4
a 719 689 4
a 689 690 10
a 690 689 10
a 690 720 8
a 720 690 8
a 691 721 6
a 721 691 6
a 693 723 10
a 723 693 10
a 693 694 8
a 694 693 8
a 694 724 7
a 724 694 7
a 694 695 3
a 695 694 3
a 695 725 5
a 725 695 5
a 695 696 10
a 696 695 10
a 696 697 8
a 697 696 8
a 697 727 8
a 727 697 8
a 697 698 5
a 698 697 5
a 698 728 8
a 728 698 8
a 700 730 6
a 730 700 6
a 700 701 10
a 701 700 10
a 701 731 3
a 731 701 3
a 701 702 10
a 702 701 10
a 702 732 4
a 732 702 4
a 702 703 6
a 703 702 6
a 703 733 5
a 733 703 5
a 703 704 9
a 704 703 9
a 704 734 2
a 734 704 2
a 704 705 5
a 705 704 5
a 705 735 9
a 735 705 9
a 705 706 6
a 706 705 6
a 706 736 1
a 736 706 1
a 706 707 6
a 707 706 6
a 707 737 7
a 737 707 7
a 707 708 2
a 708 707 2
a 708 738 10
a 738 708 10
a 708 709 7
a 709 708 7
a 709 739 6
a 739 709 6
a 709 710 4
a 710 709 4
a 710 740 10
a 740 710 10
a 710 711 6
a 711 710 6
a 711 741 7
a 741 711 7
a 711 712 9
a 712 711 9
a 712 742 9
a 742 712 9
a 712 713 7
a 713 712 7
a 713 743 4
a 743 713 4
a 713 714 6
a 714 713 6
a 714 744 9
a 744 714 9
a 714 715 4
a 715 714 4
a 715 745 10
a 745 715 10
a 715 716 7
a 716 715 7
a 716 746 5
a 746 716 5
a 716 717 10
a 717 716 10
a 717 747 9
a 747 717 9
a 717 718 10
a 718 717 10
a 718 748 9
a 748 718 9
a 718 719 8
a 719 718 8
a 719 749 8
a 749 719 8
a 719 720 5
a 720 719 5
a 720 750 5
a 750 720 5
a 721 751 2
a 751 721 2
a 721 722 3
a 722 721 3
a 722 752 2
a 752 722 2
a 722 723 1
a 723 722 1
a 723 724 1
a 724 723 1
a 724 754 1
a 754 724 1
a 724 725 2
a 725 724 2
a 725 755 8
a 755 725 8
a 727 757 9
a 757 727 9
a 727 728 7
a 728 727 7
a 728 729 2
a 729 728 2
a 729 730 6
a 730 729 6
a 730 760 6
a 760 730 6
a 730 731 6
a 731 730 6
a 731 761 9
a 761 731 9
a 731 732 1
a 732 731 1
a 732 733 4
a 733 732 4
a 733 763 6
a 763 733 6
a 733 734 1
a 734 733 1
a 734 764 8
a 764 734 8
a 734 735 3
a 735 734 3
a 735 765 10
a 765 735 10
a 735 736 5
a 736 735 5
a 736 766 9
a 766 736 9
a 736 737 8
a 737 736 8
a 737 767 1
a 767 737 1
a 737 738 9
a 738 737 9
a 738 768 9
a 768 738 9
a 738 739 8
a 739 738 8
a 739 769 10
a 769 739 10
a 739 740 9
a 740 739 9
a 740 741 6
a 741 740 6
a 741 771 1
a 771 741 1
a 741 742 5
a 742 741 5
a 742 772 10
a 772 742 10
a 742 743 2
a 743 742 2
a 743 773 3
a 773 743 3
a 743 744 1
a 744 743 1
a 744 774 3
a 774 744 3
a 744 745 10
a 745 744 10
a 745 775 2
a 775 745 2
a 745 746 2
a 746 745 2
a 746 776 5
a 776 746 5
a 746 747 6
a 747 746 6
a 747 777 2
a 777 747 2
a 747 748 2
a 748 747 2
a 748 778 10
a 778 748 10
a 748 749 6
a 749 748 6
a 749 779 7
a 779 749 7
a 749 750 5
a 750 749 5
a 750 780 3
a 780 750 3
a 751 752 6
a 752 751 6
a 752 782 7
a 782 752 7
a 754 784 2
a 784 754 2
a 754 755 4
a 755 754 4
a 755 785 5
a 785 755 5
a 755 756 1
a 756 755 1
a 756 786 8
a 786 756 8
a 756 757 10
a 757 756 10
a 757 787 5
a 787 757 5
a 760 790 10
a 790 760 10
a 760 761 5
a 761 760 5
a 761 791 6
a 791 761 6
a 763 793 6
a 793 763 6
a 763 764 9
a 764 763 9
a 764 765 10
a 765 764 10
a 765 795 1
a 795 765 1
a 765 766 4
a 766 765 4
a 766 796 9
a 796 766 9
a 766 767 10
a 767 766 10
a 767 797 4
a 797 767 4
a 767 768 9
a 768 767 9
a 768 798 4
a 798 768 4
a 768 769 3
a 769 768 3
a 769 799 9
a 799 769 9
a 771 772 7
a 772 771 7
a 772 802 3
a 802 772 3
a 772 773 7
a 773 772 7
a 773 803 3
a 803 773 3
a 773 774 7
a 774 773 7
a 774 804 3
a 804 774 3
a 774 775 1
a 775 774 1
a 775 805 2
a 805 775 2
a 775 776 4
a 776 775 4
a 776 806 8
a 806 776 8
a 776 777 1
a 777 776 1
a 777 807 3
a 807 777 3
a 777 778 4
a 778 777 4
a 778 808 10
a 808 778 10
a 778 779 4
a 779 778 4
a 779 809 5
a 809 779 5
a 779 780 10
a 780 779 10
a 780 810 5
a 810 780 5
a 782 812 1
a 812 782 1
a 782 783 6
a 783 782 6
a 783 813 9
a 813 783 9
a 783 784 7
a 784 783 7
a 784 814 4
a 814 784 4
a 784 785 5
a 785 784 5
a 785 815 5
a 815 785 5
a 785 786 6
a 786 785 6
a 786 816 5
a 816 786 5
a 786 787 9
a 787 786 9
a 787 817 5
a 817 787 5
a 787 788 3
a 788 787 3
a 788 818 4
a 818 788 4
a 788 789 5
a 789 788 5
a 789 819 4
a 819 789 4
a 789 790 2
a 790 789 2
a 790 820 3
a 820 790 3
a 790 791 2
a 791 790 2
a 791 792 7
a 792 791 7
a 792 822 9
a 822 792 9
a 792 793 10
a 793 792 10
a 793 823 5
a 823 793 5
a 795 825 10
a 825 795 10
a 795 796 7
a 796 795 7
a 796 826 9
a 826 796 9
a 796 797 1
a 797 796 1
a 797 827 5
a 827 797 5
a 797 798 7
a 798 797 7
a 798 828 9
a 828 798 9
a 798 799 4
a 799 798 4
a 799 829 6
a 829 799 6
a 799 800 10
a 800 799 10
a 800 830 2
a 830 800 2
a 802 803 10
a 803 802 10
a 803 833 5
a 833 803 5
a 803 804 6
a 804 803 6
a 804 834 9
a 834 804 9
a 804 805 5
a 805 804 5
a 805 835 8
a 835 805 8
a 805 806 4
a 806 805 4
a 806 836 2
a 836 806 2
a 806 807 4
a 807 806 4
a 807 837 5
a 837 807 5
a 807 808 8
a 808 807 8
a 808 838 8
a 838 808 8
a 808 809 5
a 809 808 5
a 809 839 4
a 839 809 4
a 809 810 9
a 810 809 9
a 810 840 5
a 840 810 5
a 811 841 3
a 841 811 3
a 811 812 3
a 812 811 3
a 812 842 2
a 842 812 2
a 812 813 9
a 813 812 9
a 813 843 1
a 843 813 1
a 813 814 3
a 814 813 3
a 814 815 4
a 815 814 4
a 815 845 5
a 845 815 5
a 815 816 2
a 816 815 2
a 816 846 7
a 846 816 7
a 816 817 10
a 817 816 10
a 817 847 7
a 847 817 7
a 817 818 3
a 818 817 3
a 818 848 1
a 848 818 1
a 818 819 5
a 819 818 5
a 819 849 8
a 849 819 8
a 819 820 1
a 820 819 1
a 822 852 1
a 852 822 1
a 822 823 2
a 823 822 2
a 823 853 10
a 853 823 10
a 823 824 7
a 824 823 7
a 824 854 3
a 854 824 3
a 824 825 7
a 825 824 7
a 825 855 4
a 855 825 4
a 825 826 2
a 826 825 2
a 826 856 3
a 856 826 3
a 826 827 6
a 827 826 6
a 827 857 7
a 857 827 7
a 827 828 5
a 828 827 5
a 828 858 9
a 858 828 9
a 828 829 9
a 829 828 9
a 829 859 8
a 859 829 8
a 829 830 1
a 830 829 1
a 830 860 2
a 860 830 2
a 830 831 6
a 831 830 6
a 831 861 7
a 861 831 7
a 833 863 2
a 863 833 2
a 833 834 1
a 834 833 1
a 834 864 4
a 864 834 4
a 834 835 6
a 835 834 6
a 835 865 10
a 865 835 10
a 835 836 8
a 836 835 8
a 836 866 1
a 866 836 1
a 836 837 7
a 837 836 7
a 837 867 4
a 867 837 4
a 837 838 9
a 838 837 9
a 838 868 4
a 868 838 4
a 838 839 5
a 839 838 5
a 839 869 5
a 869 839 5
a 839 840 4
a 840 839 4
a 840 870 8
a 870 840 8
a 841 871 7
a 871 841 7
a 841 842 2
a 842 841 2
a 842 843 3
a 843 842 3
a 843 873 7
a 873 843 7
a 845 875 10
a 875 845 10
a 845 846 8
a 846 845 8
a 846 876 10
a 876 846 10
a 846 847 2
a 847 846 2
a 847 848 2
a 848 847 2
a 848 878 8
a 878 848 8
a 848 849 4
a 849 848 4
a 849 879 9
a 879 849 9
a 852 882 3
a 882 852 3
a 852 853 1
a 853 852 1
a 853 883 10
a 883 853 10
a 853 854 6
a 854 853 6
a 854 884 1
a 884 854 1
a 854 855 4
a 855 854 4
a 855 885 7
a 885 855 7
a 855 856 4
a 856 855 4
a 856 886 8
a 886 856 8
a 856 857 5
a 857 856 5
a 857 887 2
a 887 857 2
a 857 858 1
a 858 857 1
a 858 888 6
a 888 858 6
a 858 859 6
a 859 858 6
a 859 889 7
a 889 859 7
a 859 860 5
a 860 859 5
a 860 890 8
a 890 860 8
a 860 861 10
a 861 860 10
a 861 891 4
a 891 861 4
a 861 862 6
a 862 861 6
a 862 892 5
a 892 862 5
a 862 863 5
a 863 862 5
a 863 893 5
a 893 863 5
a 863 864 8
a 864 863 8
a 864 894 5
a 894 864 5
a 864 865 6
a 865 864 6
a 865 895 5
a 895 865 5
a 865 866 9
a 866 865 9
a 866 896 2
a 896 866 2
a 866 867 3
a 867 866 3
a 867 897 2
a 897 867 2
a 867 868 8
a 868 867 8
a 868 898 1
a 898 868 1
a 868 869 3
a 869 868 3
a 869 899 9
a 899 869 9
a 869 870 9
a 870 869 9
a 870 900 2
a 900 870 2
a 873 874 1
a 874 873 1
a 874 875 6
a 875 874 6
a 875 876 10
a 876 875 10
a 878 879 1
a 879 878 1
a 879 880 8
a 880 879 8
a 880 881 5
a 881 880 5
a 881 882 3
a 882 881 3
a 882 883 3
a 883 882 3
a 883 884 1
a 884 883 1
a 884 885 3
a 885 884 3
a 885 886 1
a 886 885 1
a 886 887 6
a 887 886 6
a 887 888 5
a 888 887 5
a 888 889 7
a 889 888 7
a 889 890 5
a 890 889 5
a 890 891 2
a 891 890 2
a 891 892 10
a 892 891 10
a 892 893 1
a 893 892 1
a 893 894 2
a 894 893 2
a 894 895 10
a 895 894 10
a 895 896 7
a 896 895 7
a 896 897 6
a 897 896 6
a 897 898 10
a 898 897 10
a 898 899 7
a 899 898 7
a 899 900 7
a 900 899 7
